Minimize
    x1 + x2 + x3 + x4 + x5 + x6

Subject To
    R1: x1 + x2 >= 8
    R2: x2 + x3 >= 10
    R3: x3 + x4 >= 7
    R4: x4 + x5 >= 12
    R5: x5 + x6 >= 4
    R7: x6 + x1 >= 4
    
Bounds
    x1 >= 0
    x2 >= 0
    x3 >= 0
    x4 >= 0
    x5 >= 0
    x6 >= 0

End
